(set-logic HORN)
(set-info :source |
    Benchmark: C_VC
    Output by Princess (http://www.philipp.ruemmer.org/princess.shtml)
|)
(set-info :status unknown)
(declare-fun inv_main22 (Int Int Int Int) Bool)
(declare-fun inv_main6 (Int Int Int Int) Bool)
(declare-fun inv_main8 (Int Int Int Int) Bool)
(assert (inv_main6 0 0 0 0 ) )
(assert (forall ((var0 Int)) (forall ((var1 Int)) (forall ((var2 Int)) (forall ((var3 Int)) (forall ((var4 Int)) (or (not (and (inv_main6 var1 var2 var4 var3 ) (not (= var0 0 ) ) ) ) (inv_main8 var1 var2 var4 var3 ) ) ) ) ) ) ) )
(assert (forall ((var0 Int)) (forall ((var1 Int)) (forall ((var2 Int)) (forall ((var3 Int)) (forall ((var4 Int)) (or (not (and (inv_main8 var0 var2 var4 var3 ) (and (= var0 var2 ) (not (= var1 0 ) ) ) ) ) (inv_main8 var0 var2 (+ var4 1 ) var3 ) ) ) ) ) ) ) )
(assert (forall ((var0 Int)) (forall ((var1 Int)) (forall ((var2 Int)) (forall ((var3 Int)) (forall ((var4 Int)) (or (not (and (inv_main8 var0 var2 var4 var3 ) (and (not (= var0 var2 ) ) (not (= var1 0 ) ) ) ) ) (inv_main8 var0 var2 var4 (+ var3 1 ) ) ) ) ) ) ) ) )
(assert (forall ((var0 Int)) (forall ((var1 Int)) (forall ((var2 Int)) (forall ((var3 Int)) (forall ((var4 Int)) (or (not (and (inv_main8 var0 var2 var4 var3 ) (and (not (<= 0 (+ var4 (* (- 1) var3 ) ) ) ) (= var1 0 ) ) ) ) (inv_main6 var0 (+ var2 1 ) var4 var3 ) ) ) ) ) ) ) )
(assert (forall ((var0 Int)) (forall ((var1 Int)) (forall ((var2 Int)) (forall ((var3 Int)) (forall ((var4 Int)) (or (not (and (inv_main8 var0 var2 var4 var3 ) (and (<= 0 (+ var4 (* (- 1) var3 ) ) ) (= var1 0 ) ) ) ) (inv_main6 (+ var0 1 ) (+ var2 1 ) var4 var3 ) ) ) ) ) ) ) )
(assert (forall ((var0 Int)) (forall ((var1 Int)) (forall ((var2 Int)) (forall ((var3 Int)) (forall ((var4 Int)) (or (not (and (inv_main6 var0 var1 var3 var2 ) (and (not (<= 0 (+ var3 (* (- 1) var2 ) ) ) ) (= var4 0 ) ) ) ) (inv_main22 var0 var1 var3 var2 ) ) ) ) ) ) ) )
(assert (forall ((var0 Int)) (forall ((var1 Int)) (forall ((var2 Int)) (forall ((var3 Int)) (not (inv_main22 var0 var1 var3 var2 ) ) ) ) ) ) )
(check-sat)
